14662
1 0 0 1 1 1 1 0 1 0 0 1 0 0 1 1 0 1 0 0 1 0 0 0 1 0 0 0 1 0 
20 11 20 14 20 5 17 24 14 17 24 8 8 20 3 14 14 17 5 11 14 0 5 3 5 8 17 24 5 24 5 11 6 11 20 20 24 15 0 14 0 14 15 8 24 14 0 20 11 8 5 14 14 5 20 20 17 11 0 14 0 5 20 11 11 11 24 0 5 24 20 6 11 17 24 8 24 20 14 24 20 0 20 17 17 17 17 4 20 5 17 24 17 11 17 5 14 3 11 20 8 17 17 11 17 5 17 11 14 28 14 14 17 11 11 11 24 24 24 24 5 8 11 20 8 0 5 24 0 5 0 11 24 5 8 14 17 5 20 17 0 8 20 14 8 11 11 5 0 5 
